1, 18, 2, 3, 7, 8, 10, 11, 12, 9, 13, 5, 6, 4, 16, 14, 1
1, 33, 39, 41, 43, 51, 50, 48, 49, 40, 38, 1
1, 15, 52, 53, 22, 30, 21, 27, 28, 29, 42, 35, 34, 20, 19, 1
1, 36, 32, 24, 37, 47, 46, 45, 44, 25, 23, 31, 26, 17, 1
